p cnf 504 1203
a 295 298 302 305 310 431 316 319 325 328 447 333 338 342 346 349 356 359 363 366 371 475 377 380 484 388 392 395 400 403 407 410 7 13 24 30 2 1 40 18 6 12 35 23 29 50 45 60 55 70 65 80 75 85 90 95 105 100 110 115 120 130 125 135 140 145 150 180 162 154 158 175 167 171 190 185 200 195 209 205 219 214 224 229 234 244 239 249 254 258 262 267 275 271 280 285 290 0
d 313 431 2 0
d 340 267 24 30 7 0
d 332 447 254 258 2 0
d 386 2 484 0
d 374 2 475 0
d 3 2 0
d 4 1 2 0
d 5 1 2 0
d 8 7 0
d 9 6 7 0
d 10 6 7 0
d 11 1 2 6 7 0
d 14 13 0
d 15 12 13 0
d 16 12 13 0
d 17 1 2 6 7 12 13 0
d 19 6 12 0
d 20 18 6 12 0
d 21 18 6 12 0
d 22 1 2 6 7 12 13 18 0
d 25 24 0
d 26 23 24 0
d 27 23 24 0
d 28 1 2 6 7 12 13 18 23 24 0
d 31 30 0
d 32 29 30 0
d 33 29 30 0
d 34 1 2 6 7 12 13 18 23 24 29 30 0
d 36 23 29 0
d 37 35 23 29 0
d 38 35 23 29 0
d 39 1 2 6 7 12 13 18 23 24 29 30 35 0
d 41 18 35 0
d 42 40 18 35 0
d 43 40 18 35 0
d 44 1 2 6 7 12 13 18 23 24 29 30 35 40 0
d 46 7 12 0
d 47 45 7 12 0
d 48 45 7 12 0
d 49 1 2 6 7 12 13 18 23 24 29 30 35 40 45 0
d 51 45 35 0
d 52 50 45 35 0
d 53 50 45 35 0
d 54 1 2 6 7 12 13 18 23 24 29 30 35 40 45 50 0
d 56 6 13 0
d 57 55 6 13 0
d 58 55 6 13 0
d 59 1 2 6 7 12 13 18 23 24 29 30 35 40 45 50 55 0
d 61 55 35 0
d 62 60 55 35 0
d 63 60 55 35 0
d 64 1 2 6 7 12 13 18 23 24 29 30 35 40 45 50 55 60 0
d 66 7 13 0
d 67 65 7 13 0
d 68 65 7 13 0
d 69 1 2 6 7 12 13 18 23 24 29 30 35 40 45 50 55 60 65 0
d 71 65 35 0
d 72 70 65 35 0
d 73 70 65 35 0
d 74 1 2 6 7 12 13 18 23 24 29 30 35 40 45 50 55 60 65 70 0
d 76 24 29 0
d 77 75 24 29 0
d 78 75 24 29 0
d 79 1 2 6 7 12 13 18 23 24 29 30 35 40 45 50 55 60 65 70 75 0
d 81 18 75 0
d 82 80 18 75 0
d 83 80 18 75 0
d 84 1 2 6 7 12 13 18 23 24 29 30 35 40 45 50 55 60 65 70 75 80 0
d 86 45 75 0
d 87 85 45 75 0
d 88 85 45 75 0
d 89 1 2 6 7 12 13 18 23 24 29 30 35 40 45 50 55 60 65 70 75 80 85 0
d 91 55 75 0
d 92 90 55 75 0
d 93 90 55 75 0
d 94 1 2 6 7 12 13 18 23 24 29 30 35 40 45 50 55 60 65 70 75 80 85 90 0
d 96 65 75 0
d 97 95 65 75 0
d 98 95 65 75 0
d 99 1 2 6 7 12 13 18 23 24 29 30 35 40 45 50 55 60 65 70 75 80 85 90 95 0
d 101 23 30 0
d 102 100 23 30 0
d 103 100 23 30 0
d 104 1 2 6 7 12 13 18 23 24 29 30 35 40 45 50 55 60 65 70 75 80 85 90 95 100 0
d 106 18 100 0
d 107 105 18 100 0
d 108 105 18 100 0
d 109 1 2 6 7 12 13 18 23 24 29 30 35 40 45 50 55 60 65 70 75 80 85 90 95 100 105 0
d 111 45 100 0
d 112 110 45 100 0
d 113 110 45 100 0
d 114 1 2 6 7 12 13 18 23 24 29 30 35 40 45 50 55 60 65 70 75 80 85 90 95 100 105 110 0
d 116 55 100 0
d 117 115 55 100 0
d 118 115 55 100 0
d 119 1 2 6 7 12 13 18 23 24 29 30 35 40 45 50 55 60 65 70 75 80 85 90 95 100 105 110 115 0
d 121 65 100 0
d 122 120 65 100 0
d 123 120 65 100 0
d 124 1 2 6 7 12 13 18 23 24 29 30 35 40 45 50 55 60 65 70 75 80 85 90 95 100 105 110 115 120 0
d 126 24 30 0
d 127 125 24 30 0
d 128 125 24 30 0
d 129 1 2 6 7 12 13 18 23 24 29 30 35 40 45 50 55 60 65 70 75 80 85 90 95 100 105 110 115 120 125 0
d 131 18 125 0
d 132 130 18 125 0
d 133 130 18 125 0
d 134 1 2 6 7 12 13 18 23 24 29 30 35 40 45 50 55 60 65 70 75 80 85 90 95 100 105 110 115 120 125 130 0
d 136 45 125 0
d 137 135 45 125 0
d 138 135 45 125 0
d 139 1 2 6 7 12 13 18 23 24 29 30 35 40 45 50 55 60 65 70 75 80 85 90 95 100 105 110 115 120 125 130 135 0
d 141 55 125 0
d 142 140 55 125 0
d 143 140 55 125 0
d 144 1 2 6 7 12 13 18 23 24 29 30 35 40 45 50 55 60 65 70 75 80 85 90 95 100 105 110 115 120 125 130 135 140 0
d 146 65 125 0
d 147 145 65 125 0
d 148 145 65 125 0
d 149 1 2 6 7 12 13 18 23 24 29 30 35 40 45 50 55 60 65 70 75 80 85 90 95 100 105 110 115 120 125 130 135 140 145 0
d 151 150 2 0
d 152 150 2 0
d 153 1 2 6 7 12 13 18 23 24 29 30 35 40 45 50 55 60 65 70 75 80 85 90 95 100 105 110 115 120 125 130 135 140 145 150 0
d 155 154 7 0
d 156 154 7 0
d 157 1 2 6 7 12 13 18 23 24 29 30 35 40 45 50 55 60 65 70 75 80 85 90 95 100 105 110 115 120 125 130 135 140 145 150 154 0
d 159 158 13 0
d 160 158 13 0
d 161 1 2 6 7 12 13 18 23 24 29 30 35 40 45 50 55 60 65 70 75 80 85 90 95 100 105 110 115 120 125 130 135 140 145 150 154 158 0
d 163 154 158 0
d 164 162 154 158 0
d 165 162 154 158 0
d 166 1 2 6 7 12 13 18 23 24 29 30 35 40 45 50 55 60 65 70 75 80 85 90 95 100 105 110 115 120 125 130 135 140 145 150 154 158 162 0
d 168 167 24 0
d 169 167 24 0
d 170 1 2 6 7 12 13 18 23 24 29 30 35 40 45 50 55 60 65 70 75 80 85 90 95 100 105 110 115 120 125 130 135 140 145 150 154 158 162 167 0
d 172 171 30 0
d 173 171 30 0
d 174 1 2 6 7 12 13 18 23 24 29 30 35 40 45 50 55 60 65 70 75 80 85 90 95 100 105 110 115 120 125 130 135 140 145 150 154 158 162 167 171 0
d 176 167 171 0
d 177 175 167 171 0
d 178 175 167 171 0
d 179 1 2 6 7 12 13 18 23 24 29 30 35 40 45 50 55 60 65 70 75 80 85 90 95 100 105 110 115 120 125 130 135 140 145 150 154 158 162 167 171 175 0
d 181 162 175 0
d 182 180 162 175 0
d 183 180 162 175 0
d 184 1 2 6 7 12 13 18 23 24 29 30 35 40 45 50 55 60 65 70 75 80 85 90 95 100 105 110 115 120 125 130 135 140 145 150 154 158 162 167 171 175 180 0
d 186 7 158 0
d 187 185 7 158 0
d 188 185 7 158 0
d 189 1 2 6 7 12 13 18 23 24 29 30 35 40 45 50 55 60 65 70 75 80 85 90 95 100 105 110 115 120 125 130 135 140 145 150 154 158 162 167 171 175 180 185 0
d 191 185 175 0
d 192 190 185 175 0
d 193 190 185 175 0
d 194 1 2 6 7 12 13 18 23 24 29 30 35 40 45 50 55 60 65 70 75 80 85 90 95 100 105 110 115 120 125 130 135 140 145 150 154 158 162 167 171 175 180 185 190 0
d 196 154 13 0
d 197 195 154 13 0
d 198 195 154 13 0
d 199 1 2 6 7 12 13 18 23 24 29 30 35 40 45 50 55 60 65 70 75 80 85 90 95 100 105 110 115 120 125 130 135 140 145 150 154 158 162 167 171 175 180 185 190 195 0
d 201 195 175 0
d 202 200 195 175 0
d 203 200 195 175 0
d 204 1 2 6 7 12 13 18 23 24 29 30 35 40 45 50 55 60 65 70 75 80 85 90 95 100 105 110 115 120 125 130 135 140 145 150 154 158 162 167 171 175 180 185 190 195 200 0
d 206 205 7 13 0
d 207 205 7 13 0
d 208 1 2 6 7 12 13 18 23 24 29 30 35 40 45 50 55 60 65 70 75 80 85 90 95 100 105 110 115 120 125 130 135 140 145 150 154 158 162 167 171 175 180 185 190 195 200 205 0
d 210 205 175 0
d 211 209 205 175 0
d 212 209 205 175 0
d 213 1 2 6 7 12 13 18 23 24 29 30 35 40 45 50 55 60 65 70 75 80 85 90 95 100 105 110 115 120 125 130 135 140 145 150 154 158 162 167 171 175 180 185 190 195 200 205 209 0
d 215 24 171 0
d 216 214 24 171 0
d 217 214 24 171 0
d 218 1 2 6 7 12 13 18 23 24 29 30 35 40 45 50 55 60 65 70 75 80 85 90 95 100 105 110 115 120 125 130 135 140 145 150 154 158 162 167 171 175 180 185 190 195 200 205 209 214 0
d 220 162 214 0
d 221 219 162 214 0
d 222 219 162 214 0
d 223 1 2 6 7 12 13 18 23 24 29 30 35 40 45 50 55 60 65 70 75 80 85 90 95 100 105 110 115 120 125 130 135 140 145 150 154 158 162 167 171 175 180 185 190 195 200 205 209 214 219 0
d 225 185 214 0
d 226 224 185 214 0
d 227 224 185 214 0
d 228 1 2 6 7 12 13 18 23 24 29 30 35 40 45 50 55 60 65 70 75 80 85 90 95 100 105 110 115 120 125 130 135 140 145 150 154 158 162 167 171 175 180 185 190 195 200 205 209 214 219 224 0
d 230 195 214 0
d 231 229 195 214 0
d 232 229 195 214 0
d 233 1 2 6 7 12 13 18 23 24 29 30 35 40 45 50 55 60 65 70 75 80 85 90 95 100 105 110 115 120 125 130 135 140 145 150 154 158 162 167 171 175 180 185 190 195 200 205 209 214 219 224 229 0
d 235 205 214 0
d 236 234 205 214 0
d 237 234 205 214 0
d 238 1 2 6 7 12 13 18 23 24 29 30 35 40 45 50 55 60 65 70 75 80 85 90 95 100 105 110 115 120 125 130 135 140 145 150 154 158 162 167 171 175 180 185 190 195 200 205 209 214 219 224 229 234 0
d 240 167 30 0
d 241 239 167 30 0
d 242 239 167 30 0
d 243 1 2 6 7 12 13 18 23 24 29 30 35 40 45 50 55 60 65 70 75 80 85 90 95 100 105 110 115 120 125 130 135 140 145 150 154 158 162 167 171 175 180 185 190 195 200 205 209 214 219 224 229 234 239 0
d 245 162 239 0
d 246 244 162 239 0
d 247 244 162 239 0
d 248 1 2 6 7 12 13 18 23 24 29 30 35 40 45 50 55 60 65 70 75 80 85 90 95 100 105 110 115 120 125 130 135 140 145 150 154 158 162 167 171 175 180 185 190 195 200 205 209 214 219 224 229 234 239 244 0
d 250 185 239 0
d 251 249 185 239 0
d 252 249 185 239 0
d 253 1 2 6 7 12 13 18 23 24 29 30 35 40 45 50 55 60 65 70 75 80 85 90 95 100 105 110 115 120 125 130 135 140 145 150 154 158 162 167 171 175 180 185 190 195 200 205 209 214 219 224 229 234 239 244 249 0
d 255 254 195 0
d 256 254 195 0
d 257 1 2 6 7 12 13 18 23 24 29 30 35 40 45 50 55 60 65 70 75 80 85 90 95 100 105 110 115 120 125 130 135 140 145 150 154 158 162 167 171 175 180 185 190 195 200 205 209 214 219 224 229 234 239 244 249 254 0
d 259 258 239 0
d 260 258 239 0
d 261 1 2 6 7 12 13 18 23 24 29 30 35 40 45 50 55 60 65 70 75 80 85 90 95 100 105 110 115 120 125 130 135 140 145 150 154 158 162 167 171 175 180 185 190 195 200 205 209 214 219 224 229 234 239 244 249 254 258 0
d 263 205 239 0
d 264 262 205 239 0
d 265 262 205 239 0
d 266 1 2 6 7 12 13 18 23 24 29 30 35 40 45 50 55 60 65 70 75 80 85 90 95 100 105 110 115 120 125 130 135 140 145 150 154 158 162 167 171 175 180 185 190 195 200 205 209 214 219 224 229 234 239 244 249 254 258 262 0
d 268 267 158 0
d 269 267 158 0
d 270 1 2 6 7 12 13 18 23 24 29 30 35 40 45 50 55 60 65 70 75 80 85 90 95 100 105 110 115 120 125 130 135 140 145 150 154 158 162 167 171 175 180 185 190 195 200 205 209 214 219 224 229 234 239 244 249 254 258 262 267 0
d 272 271 24 30 0
d 273 271 24 30 0
d 274 1 2 6 7 12 13 18 23 24 29 30 35 40 45 50 55 60 65 70 75 80 85 90 95 100 105 110 115 120 125 130 135 140 145 150 154 158 162 167 171 175 180 185 190 195 200 205 209 214 219 224 229 234 239 244 249 254 258 262 267 271 0
d 276 185 271 0
d 277 275 185 271 0
d 278 275 185 271 0
d 279 1 2 6 7 12 13 18 23 24 29 30 35 40 45 50 55 60 65 70 75 80 85 90 95 100 105 110 115 120 125 130 135 140 145 150 154 158 162 167 171 175 180 185 190 195 200 205 209 214 219 224 229 234 239 244 249 254 258 262 267 271 275 0
d 281 195 271 0
d 282 280 195 271 0
d 283 280 195 271 0
d 284 1 2 6 7 12 13 18 23 24 29 30 35 40 45 50 55 60 65 70 75 80 85 90 95 100 105 110 115 120 125 130 135 140 145 150 154 158 162 167 171 175 180 185 190 195 200 205 209 214 219 224 229 234 239 244 249 254 258 262 267 271 275 280 0
d 286 205 271 0
d 287 285 205 271 0
d 288 285 205 271 0
d 289 1 2 6 7 12 13 18 23 24 29 30 35 40 45 50 55 60 65 70 75 80 85 90 95 100 105 110 115 120 125 130 135 140 145 150 154 158 162 167 171 175 180 185 190 195 200 205 209 214 219 224 229 234 239 244 249 254 258 262 267 271 275 280 285 0
d 291 195 239 0
d 292 290 195 239 0
d 293 290 195 239 0
d 294 1 2 6 7 12 13 18 23 24 29 30 35 40 45 50 55 60 65 70 75 80 85 90 95 100 105 110 115 120 125 130 135 140 145 150 154 158 162 167 171 175 180 185 190 195 200 205 209 214 219 224 229 234 239 244 249 254 258 262 267 271 275 280 285 290 0
d 296 150 295 0
d 297 150 295 180 0
d 299 150 298 0
d 300 150 298 190 0
d 301 150 295 180 298 190 0
d 303 150 302 0
d 304 150 302 200 0
d 306 150 305 0
d 307 150 305 209 0
d 308 150 302 200 305 209 0
d 309 150 295 180 298 190 302 200 305 209 0
d 311 150 310 0
d 312 150 310 219 0
d 314 431 2 224 0
d 315 150 310 219 431 2 224 0
d 317 150 316 0
d 318 150 316 229 0
d 320 150 319 0
d 321 150 319 234 0
d 322 150 316 229 319 234 0
d 323 150 310 219 431 2 224 316 229 319 234 0
d 324 150 295 180 298 190 302 200 305 209 310 219 431 2 224 316 229 319 234 0
d 326 150 325 0
d 327 150 325 244 0
d 329 150 328 0
d 330 150 328 249 0
d 331 150 325 244 328 249 0
d 334 150 333 0
d 335 150 333 262 0
d 336 447 254 258 2 150 333 262 0
d 337 150 325 244 328 249 447 254 258 2 333 262 0
d 339 150 338 0
d 341 150 338 267 24 30 7 0
d 343 150 342 0
d 344 150 342 275 0
d 345 150 338 267 24 30 7 342 275 0
d 347 150 346 0
d 348 150 346 280 0
d 350 150 349 0
d 351 150 349 285 0
d 352 150 346 280 349 285 0
d 353 150 338 267 24 30 7 342 275 346 280 349 285 0
d 354 150 325 244 328 249 447 254 258 2 333 262 338 267 24 30 7 342 275 346 280 349 285 0
d 355 150 295 180 298 190 302 200 305 209 310 219 431 2 224 316 229 319 234 325 244 328 249 447 254 258 333 262 338 267 24 30 7 342 275 346 280 349 285 0
d 357 2 356 0
d 358 2 356 180 0
d 360 2 359 0
d 361 2 359 190 0
d 362 2 356 180 359 190 0
d 364 2 363 0
d 365 2 363 200 0
d 367 2 366 0
d 368 2 366 209 0
d 369 2 363 200 366 209 0
d 370 2 356 180 359 190 363 200 366 209 0
d 372 2 371 0
d 373 2 371 219 0
d 375 2 475 224 0
d 376 2 371 219 475 224 0
d 378 2 377 0
d 379 2 377 229 0
d 381 2 380 0
d 382 2 380 234 0
d 383 2 377 229 380 234 0
d 384 2 371 219 475 224 377 229 380 234 0
d 385 2 356 180 359 190 363 200 366 209 371 219 475 224 377 229 380 234 0
d 387 2 484 244 0
d 389 2 388 0
d 390 2 388 249 0
d 391 2 484 244 388 249 0
d 393 2 392 0
d 394 2 392 290 0
d 396 2 395 0
d 397 2 395 262 0
d 398 2 392 290 395 262 0
d 399 2 484 244 388 249 392 290 395 262 0
d 401 2 400 0
d 402 2 400 267 24 30 7 0
d 404 2 403 0
d 405 2 403 275 0
d 406 2 400 267 24 30 7 403 275 0
d 408 2 407 0
d 409 2 407 280 0
d 411 2 410 0
d 412 2 410 285 0
d 413 2 407 280 410 285 0
d 414 2 400 267 24 30 7 403 275 407 280 410 285 0
d 415 2 484 244 388 249 392 290 395 262 400 267 24 30 7 403 275 407 280 410 285 0
d 416 2 356 180 359 190 363 200 366 209 371 219 475 224 377 229 380 234 484 244 388 249 392 290 395 262 400 267 24 30 7 403 275 407 280 410 285 0
d 417 150 295 180 298 190 302 200 305 209 310 219 431 2 224 316 229 319 234 325 244 328 249 447 254 258 333 262 338 267 24 30 7 342 275 346 280 349 285 356 359 363 366 371 475 377 380 484 388 392 290 395 400 403 407 410 0
d 418 1 295 0
d 419 1 295 40 0
d 420 1 298 0
d 421 1 298 50 0
d 422 1 295 40 298 50 0
d 423 1 302 0
d 424 1 302 60 0
d 425 1 305 0
d 426 1 305 70 0
d 427 1 302 60 305 70 0
d 428 1 295 40 298 50 302 60 305 70 0
d 429 1 310 0
d 430 1 310 80 0
d 432 1 431 0
d 433 1 431 85 0
d 434 1 310 80 431 85 0
d 435 1 316 0
d 436 1 316 90 0
d 437 1 319 0
d 438 1 319 95 0
d 439 1 316 90 319 95 0
d 440 1 310 80 431 85 316 90 319 95 0
d 441 1 295 40 298 50 302 60 305 70 310 80 431 85 316 90 319 95 0
d 442 1 325 0
d 443 1 325 105 0
d 444 1 328 0
d 445 1 328 110 0
d 446 1 325 105 328 110 0
d 448 1 447 0
d 449 1 447 115 0
d 450 1 333 0
d 451 1 333 120 0
d 452 1 447 115 333 120 0
d 453 1 325 105 328 110 447 115 333 120 0
d 454 1 338 0
d 455 1 338 130 0
d 456 1 342 0
d 457 1 342 135 0
d 458 1 338 130 342 135 0
d 459 1 346 0
d 460 1 346 140 0
d 461 1 349 0
d 462 1 349 145 0
d 463 1 346 140 349 145 0
d 464 1 338 130 342 135 346 140 349 145 0
d 465 1 325 105 328 110 447 115 333 120 338 130 342 135 346 140 349 145 0
d 466 1 295 40 298 50 302 60 305 70 310 80 431 85 316 90 319 95 325 105 328 110 447 115 333 120 338 130 342 135 346 140 349 145 0
d 467 2 356 40 0
d 468 2 359 50 0
d 469 2 356 40 359 50 0
d 470 2 363 60 0
d 471 2 366 70 0
d 472 2 363 60 366 70 0
d 473 2 356 40 359 50 363 60 366 70 0
d 474 2 371 80 0
d 476 2 475 0
d 477 2 475 85 0
d 478 2 371 80 475 85 0
d 479 2 377 90 0
d 480 2 380 95 0
d 481 2 377 90 380 95 0
d 482 2 371 80 475 85 377 90 380 95 0
d 483 2 356 40 359 50 363 60 366 70 371 80 475 85 377 90 380 95 0
d 485 2 484 0
d 486 2 484 105 0
d 487 2 388 110 0
d 488 2 484 105 388 110 0
d 489 2 392 115 0
d 490 2 395 120 0
d 491 2 392 115 395 120 0
d 492 2 484 105 388 110 392 115 395 120 0
d 493 2 400 130 0
d 494 2 403 135 0
d 495 2 400 130 403 135 0
d 496 2 407 140 0
d 497 2 410 145 0
d 498 2 407 140 410 145 0
d 499 2 400 130 403 135 407 140 410 145 0
d 500 2 484 105 388 110 392 115 395 120 400 130 403 135 407 140 410 145 0
d 501 2 356 40 359 50 363 60 366 70 371 80 475 85 377 90 380 95 484 105 388 110 392 115 395 120 400 130 403 135 407 140 410 145 0
d 502 1 295 40 298 50 302 60 305 70 310 80 431 85 316 90 319 95 325 105 328 110 447 115 333 120 338 130 342 135 346 140 349 145 2 356 359 363 366 371 475 377 380 484 388 392 395 400 403 407 410 0
d 503 150 295 180 298 190 302 200 305 209 310 219 431 2 224 316 229 319 234 325 244 328 249 447 254 258 333 262 338 267 24 30 7 342 275 346 280 349 285 356 359 363 366 371 475 377 380 484 388 392 290 395 400 403 407 410 1 40 50 60 70 80 85 90 95 105 110 115 120 130 135 140 145 0
d 504 1 2 6 7 12 13 18 23 24 29 30 35 40 45 50 55 60 65 70 75 80 85 90 95 100 105 110 115 120 125 130 135 140 145 150 154 158 162 167 171 175 180 185 190 195 200 205 209 214 219 224 229 234 239 244 249 254 258 262 267 271 275 280 285 290 295 298 302 305 310 431 316 319 325 328 447 333 338 342 346 349 356 359 363 366 371 475 377 380 484 388 392 395 400 403 407 410 0
3 2 0
-3 -2 0
4 -1 -3 0
4 1 3 0
-4 -1 3 0
-4 1 -3 0
5 4 0
-5 -4 0
8 7 0
-8 -7 0
9 -6 -8 0
9 6 8 0
-9 -6 8 0
-9 6 -8 0
10 9 0
-10 -9 0
11 -5 0
11 -10 0
-11 5 10 0
14 13 0
-14 -13 0
15 -12 -14 0
15 12 14 0
-15 -12 14 0
-15 12 -14 0
16 15 0
-16 -15 0
17 -11 0
17 -16 0
-17 11 16 0
-19 6 0
-19 12 0
19 -6 -12 0
20 -18 -19 0
20 18 19 0
-20 -18 19 0
-20 18 -19 0
21 20 0
-21 -20 0
22 -17 0
22 -21 0
-22 17 21 0
25 24 0
-25 -24 0
26 -23 -25 0
26 23 25 0
-26 -23 25 0
-26 23 -25 0
27 26 0
-27 -26 0
28 -22 0
28 -27 0
-28 22 27 0
31 30 0
-31 -30 0
32 -29 -31 0
32 29 31 0
-32 -29 31 0
-32 29 -31 0
33 32 0
-33 -32 0
34 -28 0
34 -33 0
-34 28 33 0
-36 23 0
-36 29 0
36 -23 -29 0
37 -35 -36 0
37 35 36 0
-37 -35 36 0
-37 35 -36 0
38 37 0
-38 -37 0
39 -34 0
39 -38 0
-39 34 38 0
-41 18 0
-41 35 0
41 -18 -35 0
42 -40 -41 0
42 40 41 0
-42 -40 41 0
-42 40 -41 0
43 42 0
-43 -42 0
44 -39 0
44 -43 0
-44 39 43 0
-46 7 0
-46 12 0
46 -7 -12 0
47 -45 -46 0
47 45 46 0
-47 -45 46 0
-47 45 -46 0
48 47 0
-48 -47 0
49 -44 0
49 -48 0
-49 44 48 0
-51 45 0
-51 35 0
51 -45 -35 0
52 -50 -51 0
52 50 51 0
-52 -50 51 0
-52 50 -51 0
53 52 0
-53 -52 0
54 -49 0
54 -53 0
-54 49 53 0
-56 6 0
-56 13 0
56 -6 -13 0
57 -55 -56 0
57 55 56 0
-57 -55 56 0
-57 55 -56 0
58 57 0
-58 -57 0
59 -54 0
59 -58 0
-59 54 58 0
-61 55 0
-61 35 0
61 -55 -35 0
62 -60 -61 0
62 60 61 0
-62 -60 61 0
-62 60 -61 0
63 62 0
-63 -62 0
64 -59 0
64 -63 0
-64 59 63 0
-66 7 0
-66 13 0
66 -7 -13 0
67 -65 -66 0
67 65 66 0
-67 -65 66 0
-67 65 -66 0
68 67 0
-68 -67 0
69 -64 0
69 -68 0
-69 64 68 0
-71 65 0
-71 35 0
71 -65 -35 0
72 -70 -71 0
72 70 71 0
-72 -70 71 0
-72 70 -71 0
73 72 0
-73 -72 0
74 -69 0
74 -73 0
-74 69 73 0
-76 24 0
-76 29 0
76 -24 -29 0
77 -75 -76 0
77 75 76 0
-77 -75 76 0
-77 75 -76 0
78 77 0
-78 -77 0
79 -74 0
79 -78 0
-79 74 78 0
-81 18 0
-81 75 0
81 -18 -75 0
82 -80 -81 0
82 80 81 0
-82 -80 81 0
-82 80 -81 0
83 82 0
-83 -82 0
84 -79 0
84 -83 0
-84 79 83 0
-86 45 0
-86 75 0
86 -45 -75 0
87 -85 -86 0
87 85 86 0
-87 -85 86 0
-87 85 -86 0
88 87 0
-88 -87 0
89 -84 0
89 -88 0
-89 84 88 0
-91 55 0
-91 75 0
91 -55 -75 0
92 -90 -91 0
92 90 91 0
-92 -90 91 0
-92 90 -91 0
93 92 0
-93 -92 0
94 -89 0
94 -93 0
-94 89 93 0
-96 65 0
-96 75 0
96 -65 -75 0
97 -95 -96 0
97 95 96 0
-97 -95 96 0
-97 95 -96 0
98 97 0
-98 -97 0
99 -94 0
99 -98 0
-99 94 98 0
-101 23 0
-101 30 0
101 -23 -30 0
102 -100 -101 0
102 100 101 0
-102 -100 101 0
-102 100 -101 0
103 102 0
-103 -102 0
104 -99 0
104 -103 0
-104 99 103 0
-106 18 0
-106 100 0
106 -18 -100 0
107 -105 -106 0
107 105 106 0
-107 -105 106 0
-107 105 -106 0
108 107 0
-108 -107 0
109 -104 0
109 -108 0
-109 104 108 0
-111 45 0
-111 100 0
111 -45 -100 0
112 -110 -111 0
112 110 111 0
-112 -110 111 0
-112 110 -111 0
113 112 0
-113 -112 0
114 -109 0
114 -113 0
-114 109 113 0
-116 55 0
-116 100 0
116 -55 -100 0
117 -115 -116 0
117 115 116 0
-117 -115 116 0
-117 115 -116 0
118 117 0
-118 -117 0
119 -114 0
119 -118 0
-119 114 118 0
-121 65 0
-121 100 0
121 -65 -100 0
122 -120 -121 0
122 120 121 0
-122 -120 121 0
-122 120 -121 0
123 122 0
-123 -122 0
124 -119 0
124 -123 0
-124 119 123 0
-126 24 0
-126 30 0
126 -24 -30 0
127 -125 -126 0
127 125 126 0
-127 -125 126 0
-127 125 -126 0
128 127 0
-128 -127 0
129 -124 0
129 -128 0
-129 124 128 0
-131 18 0
-131 125 0
131 -18 -125 0
132 -130 -131 0
132 130 131 0
-132 -130 131 0
-132 130 -131 0
133 132 0
-133 -132 0
134 -129 0
134 -133 0
-134 129 133 0
-136 45 0
-136 125 0
136 -45 -125 0
137 -135 -136 0
137 135 136 0
-137 -135 136 0
-137 135 -136 0
138 137 0
-138 -137 0
139 -134 0
139 -138 0
-139 134 138 0
-141 55 0
-141 125 0
141 -55 -125 0
142 -140 -141 0
142 140 141 0
-142 -140 141 0
-142 140 -141 0
143 142 0
-143 -142 0
144 -139 0
144 -143 0
-144 139 143 0
-146 65 0
-146 125 0
146 -65 -125 0
147 -145 -146 0
147 145 146 0
-147 -145 146 0
-147 145 -146 0
148 147 0
-148 -147 0
149 -144 0
149 -148 0
-149 144 148 0
151 -150 -3 0
151 150 3 0
-151 -150 3 0
-151 150 -3 0
152 151 0
-152 -151 0
153 -149 0
153 -152 0
-153 149 152 0
155 -154 -8 0
155 154 8 0
-155 -154 8 0
-155 154 -8 0
156 155 0
-156 -155 0
157 -153 0
157 -156 0
-157 153 156 0
159 -158 -14 0
159 158 14 0
-159 -158 14 0
-159 158 -14 0
160 159 0
-160 -159 0
161 -157 0
161 -160 0
-161 157 160 0
-163 154 0
-163 158 0
163 -154 -158 0
164 -162 -163 0
164 162 163 0
-164 -162 163 0
-164 162 -163 0
165 164 0
-165 -164 0
166 -161 0
166 -165 0
-166 161 165 0
168 -167 -25 0
168 167 25 0
-168 -167 25 0
-168 167 -25 0
169 168 0
-169 -168 0
170 -166 0
170 -169 0
-170 166 169 0
172 -171 -31 0
172 171 31 0
-172 -171 31 0
-172 171 -31 0
173 172 0
-173 -172 0
174 -170 0
174 -173 0
-174 170 173 0
-176 167 0
-176 171 0
176 -167 -171 0
177 -175 -176 0
177 175 176 0
-177 -175 176 0
-177 175 -176 0
178 177 0
-178 -177 0
179 -174 0
179 -178 0
-179 174 178 0
-181 162 0
-181 175 0
181 -162 -175 0
182 -180 -181 0
182 180 181 0
-182 -180 181 0
-182 180 -181 0
183 182 0
-183 -182 0
184 -179 0
184 -183 0
-184 179 183 0
-186 7 0
-186 158 0
186 -7 -158 0
187 -185 -186 0
187 185 186 0
-187 -185 186 0
-187 185 -186 0
188 187 0
-188 -187 0
189 -184 0
189 -188 0
-189 184 188 0
-191 185 0
-191 175 0
191 -185 -175 0
192 -190 -191 0
192 190 191 0
-192 -190 191 0
-192 190 -191 0
193 192 0
-193 -192 0
194 -189 0
194 -193 0
-194 189 193 0
-196 154 0
-196 13 0
196 -154 -13 0
197 -195 -196 0
197 195 196 0
-197 -195 196 0
-197 195 -196 0
198 197 0
-198 -197 0
199 -194 0
199 -198 0
-199 194 198 0
-201 195 0
-201 175 0
201 -195 -175 0
202 -200 -201 0
202 200 201 0
-202 -200 201 0
-202 200 -201 0
203 202 0
-203 -202 0
204 -199 0
204 -203 0
-204 199 203 0
206 -205 -66 0
206 205 66 0
-206 -205 66 0
-206 205 -66 0
207 206 0
-207 -206 0
208 -204 0
208 -207 0
-208 204 207 0
-210 205 0
-210 175 0
210 -205 -175 0
211 -209 -210 0
211 209 210 0
-211 -209 210 0
-211 209 -210 0
212 211 0
-212 -211 0
213 -208 0
213 -212 0
-213 208 212 0
-215 24 0
-215 171 0
215 -24 -171 0
216 -214 -215 0
216 214 215 0
-216 -214 215 0
-216 214 -215 0
217 216 0
-217 -216 0
218 -213 0
218 -217 0
-218 213 217 0
-220 162 0
-220 214 0
220 -162 -214 0
221 -219 -220 0
221 219 220 0
-221 -219 220 0
-221 219 -220 0
222 221 0
-222 -221 0
223 -218 0
223 -222 0
-223 218 222 0
-225 185 0
-225 214 0
225 -185 -214 0
226 -224 -225 0
226 224 225 0
-226 -224 225 0
-226 224 -225 0
227 226 0
-227 -226 0
228 -223 0
228 -227 0
-228 223 227 0
-230 195 0
-230 214 0
230 -195 -214 0
231 -229 -230 0
231 229 230 0
-231 -229 230 0
-231 229 -230 0
232 231 0
-232 -231 0
233 -228 0
233 -232 0
-233 228 232 0
-235 205 0
-235 214 0
235 -205 -214 0
236 -234 -235 0
236 234 235 0
-236 -234 235 0
-236 234 -235 0
237 236 0
-237 -236 0
238 -233 0
238 -237 0
-238 233 237 0
-240 167 0
-240 30 0
240 -167 -30 0
241 -239 -240 0
241 239 240 0
-241 -239 240 0
-241 239 -240 0
242 241 0
-242 -241 0
243 -238 0
243 -242 0
-243 238 242 0
-245 162 0
-245 239 0
245 -162 -239 0
246 -244 -245 0
246 244 245 0
-246 -244 245 0
-246 244 -245 0
247 246 0
-247 -246 0
248 -243 0
248 -247 0
-248 243 247 0
-250 185 0
-250 239 0
250 -185 -239 0
251 -249 -250 0
251 249 250 0
-251 -249 250 0
-251 249 -250 0
252 251 0
-252 -251 0
253 -248 0
253 -252 0
-253 248 252 0
255 -254 -195 0
255 254 195 0
-255 -254 195 0
-255 254 -195 0
256 255 0
-256 -255 0
257 -253 0
257 -256 0
-257 253 256 0
259 -258 -239 0
259 258 239 0
-259 -258 239 0
-259 258 -239 0
260 259 0
-260 -259 0
261 -257 0
261 -260 0
-261 257 260 0
-263 205 0
-263 239 0
263 -205 -239 0
264 -262 -263 0
264 262 263 0
-264 -262 263 0
-264 262 -263 0
265 264 0
-265 -264 0
266 -261 0
266 -265 0
-266 261 265 0
268 -267 -158 0
268 267 158 0
-268 -267 158 0
-268 267 -158 0
269 268 0
-269 -268 0
270 -266 0
270 -269 0
-270 266 269 0
272 -271 -126 0
272 271 126 0
-272 -271 126 0
-272 271 -126 0
273 272 0
-273 -272 0
274 -270 0
274 -273 0
-274 270 273 0
-276 185 0
-276 271 0
276 -185 -271 0
277 -275 -276 0
277 275 276 0
-277 -275 276 0
-277 275 -276 0
278 277 0
-278 -277 0
279 -274 0
279 -278 0
-279 274 278 0
-281 195 0
-281 271 0
281 -195 -271 0
282 -280 -281 0
282 280 281 0
-282 -280 281 0
-282 280 -281 0
283 282 0
-283 -282 0
284 -279 0
284 -283 0
-284 279 283 0
-286 205 0
-286 271 0
286 -205 -271 0
287 -285 -286 0
287 285 286 0
-287 -285 286 0
-287 285 -286 0
288 287 0
-288 -287 0
289 -284 0
289 -288 0
-289 284 288 0
-291 195 0
-291 239 0
291 -195 -239 0
292 -290 -291 0
292 290 291 0
-292 -290 291 0
-292 290 -291 0
293 292 0
-293 -292 0
294 -289 0
294 -293 0
-294 289 293 0
-296 150 0
-296 295 0
296 -150 -295 0
-297 296 0
-297 180 0
297 -296 -180 0
-299 150 0
-299 298 0
299 -150 -298 0
-300 299 0
-300 190 0
300 -299 -190 0
301 -297 0
301 -300 0
-301 297 300 0
-303 150 0
-303 302 0
303 -150 -302 0
-304 303 0
-304 200 0
304 -303 -200 0
-306 150 0
-306 305 0
306 -150 -305 0
-307 306 0
-307 209 0
307 -306 -209 0
308 -304 0
308 -307 0
-308 304 307 0
309 -301 0
309 -308 0
-309 301 308 0
-311 150 0
-311 310 0
311 -150 -310 0
-312 311 0
-312 219 0
312 -311 -219 0
-314 313 0
-314 224 0
314 -313 -224 0
315 -312 0
315 -314 0
-315 312 314 0
-317 150 0
-317 316 0
317 -150 -316 0
-318 317 0
-318 229 0
318 -317 -229 0
-320 150 0
-320 319 0
320 -150 -319 0
-321 320 0
-321 234 0
321 -320 -234 0
322 -318 0
322 -321 0
-322 318 321 0
323 -315 0
323 -322 0
-323 315 322 0
324 -309 0
324 -323 0
-324 309 323 0
-326 150 0
-326 325 0
326 -150 -325 0
-327 326 0
-327 244 0
327 -326 -244 0
-329 150 0
-329 328 0
329 -150 -328 0
-330 329 0
-330 249 0
330 -329 -249 0
331 -327 0
331 -330 0
-331 327 330 0
-334 150 0
-334 333 0
334 -150 -333 0
-335 334 0
-335 262 0
335 -334 -262 0
336 -332 0
336 -335 0
-336 332 335 0
337 -331 0
337 -336 0
-337 331 336 0
-339 150 0
-339 338 0
339 -150 -338 0
-341 339 0
-341 340 0
341 -339 -340 0
-343 150 0
-343 342 0
343 -150 -342 0
-344 343 0
-344 275 0
344 -343 -275 0
345 -341 0
345 -344 0
-345 341 344 0
-347 150 0
-347 346 0
347 -150 -346 0
-348 347 0
-348 280 0
348 -347 -280 0
-350 150 0
-350 349 0
350 -150 -349 0
-351 350 0
-351 285 0
351 -350 -285 0
352 -348 0
352 -351 0
-352 348 351 0
353 -345 0
353 -352 0
-353 345 352 0
354 -337 0
354 -353 0
-354 337 353 0
355 -324 0
355 -354 0
-355 324 354 0
-357 2 0
-357 356 0
357 -2 -356 0
-358 357 0
-358 180 0
358 -357 -180 0
-360 2 0
-360 359 0
360 -2 -359 0
-361 360 0
-361 190 0
361 -360 -190 0
362 -358 0
362 -361 0
-362 358 361 0
-364 2 0
-364 363 0
364 -2 -363 0
-365 364 0
-365 200 0
365 -364 -200 0
-367 2 0
-367 366 0
367 -2 -366 0
-368 367 0
-368 209 0
368 -367 -209 0
369 -365 0
369 -368 0
-369 365 368 0
370 -362 0
370 -369 0
-370 362 369 0
-372 2 0
-372 371 0
372 -2 -371 0
-373 372 0
-373 219 0
373 -372 -219 0
-375 374 0
-375 224 0
375 -374 -224 0
376 -373 0
376 -375 0
-376 373 375 0
-378 2 0
-378 377 0
378 -2 -377 0
-379 378 0
-379 229 0
379 -378 -229 0
-381 2 0
-381 380 0
381 -2 -380 0
-382 381 0
-382 234 0
382 -381 -234 0
383 -379 0
383 -382 0
-383 379 382 0
384 -376 0
384 -383 0
-384 376 383 0
385 -370 0
385 -384 0
-385 370 384 0
-387 386 0
-387 244 0
387 -386 -244 0
-389 2 0
-389 388 0
389 -2 -388 0
-390 389 0
-390 249 0
390 -389 -249 0
391 -387 0
391 -390 0
-391 387 390 0
-393 2 0
-393 392 0
393 -2 -392 0
-394 393 0
-394 290 0
394 -393 -290 0
-396 2 0
-396 395 0
396 -2 -395 0
-397 396 0
-397 262 0
397 -396 -262 0
398 -394 0
398 -397 0
-398 394 397 0
399 -391 0
399 -398 0
-399 391 398 0
-401 2 0
-401 400 0
401 -2 -400 0
-402 401 0
-402 340 0
402 -401 -340 0
-404 2 0
-404 403 0
404 -2 -403 0
-405 404 0
-405 275 0
405 -404 -275 0
406 -402 0
406 -405 0
-406 402 405 0
-408 2 0
-408 407 0
408 -2 -407 0
-409 408 0
-409 280 0
409 -408 -280 0
-411 2 0
-411 410 0
411 -2 -410 0
-412 411 0
-412 285 0
412 -411 -285 0
413 -409 0
413 -412 0
-413 409 412 0
414 -406 0
414 -413 0
-414 406 413 0
415 -399 0
415 -414 0
-415 399 414 0
416 -385 0
416 -415 0
-416 385 415 0
417 -355 0
417 -416 0
-417 355 416 0
-418 1 0
-418 295 0
418 -1 -295 0
-419 418 0
-419 40 0
419 -418 -40 0
-420 1 0
-420 298 0
420 -1 -298 0
-421 420 0
-421 50 0
421 -420 -50 0
422 -419 0
422 -421 0
-422 419 421 0
-423 1 0
-423 302 0
423 -1 -302 0
-424 423 0
-424 60 0
424 -423 -60 0
-425 1 0
-425 305 0
425 -1 -305 0
-426 425 0
-426 70 0
426 -425 -70 0
427 -424 0
427 -426 0
-427 424 426 0
428 -422 0
428 -427 0
-428 422 427 0
-429 1 0
-429 310 0
429 -1 -310 0
-430 429 0
-430 80 0
430 -429 -80 0
-432 1 0
-432 431 0
432 -1 -431 0
-433 432 0
-433 85 0
433 -432 -85 0
434 -430 0
434 -433 0
-434 430 433 0
-435 1 0
-435 316 0
435 -1 -316 0
-436 435 0
-436 90 0
436 -435 -90 0
-437 1 0
-437 319 0
437 -1 -319 0
-438 437 0
-438 95 0
438 -437 -95 0
439 -436 0
439 -438 0
-439 436 438 0
440 -434 0
440 -439 0
-440 434 439 0
441 -428 0
441 -440 0
-441 428 440 0
-442 1 0
-442 325 0
442 -1 -325 0
-443 442 0
-443 105 0
443 -442 -105 0
-444 1 0
-444 328 0
444 -1 -328 0
-445 444 0
-445 110 0
445 -444 -110 0
446 -443 0
446 -445 0
-446 443 445 0
-448 1 0
-448 447 0
448 -1 -447 0
-449 448 0
-449 115 0
449 -448 -115 0
-450 1 0
-450 333 0
450 -1 -333 0
-451 450 0
-451 120 0
451 -450 -120 0
452 -449 0
452 -451 0
-452 449 451 0
453 -446 0
453 -452 0
-453 446 452 0
-454 1 0
-454 338 0
454 -1 -338 0
-455 454 0
-455 130 0
455 -454 -130 0
-456 1 0
-456 342 0
456 -1 -342 0
-457 456 0
-457 135 0
457 -456 -135 0
458 -455 0
458 -457 0
-458 455 457 0
-459 1 0
-459 346 0
459 -1 -346 0
-460 459 0
-460 140 0
460 -459 -140 0
-461 1 0
-461 349 0
461 -1 -349 0
-462 461 0
-462 145 0
462 -461 -145 0
463 -460 0
463 -462 0
-463 460 462 0
464 -458 0
464 -463 0
-464 458 463 0
465 -453 0
465 -464 0
-465 453 464 0
466 -441 0
466 -465 0
-466 441 465 0
-467 357 0
-467 40 0
467 -357 -40 0
-468 360 0
-468 50 0
468 -360 -50 0
469 -467 0
469 -468 0
-469 467 468 0
-470 364 0
-470 60 0
470 -364 -60 0
-471 367 0
-471 70 0
471 -367 -70 0
472 -470 0
472 -471 0
-472 470 471 0
473 -469 0
473 -472 0
-473 469 472 0
-474 372 0
-474 80 0
474 -372 -80 0
-476 2 0
-476 475 0
476 -2 -475 0
-477 476 0
-477 85 0
477 -476 -85 0
478 -474 0
478 -477 0
-478 474 477 0
-479 378 0
-479 90 0
479 -378 -90 0
-480 381 0
-480 95 0
480 -381 -95 0
481 -479 0
481 -480 0
-481 479 480 0
482 -478 0
482 -481 0
-482 478 481 0
483 -473 0
483 -482 0
-483 473 482 0
-485 2 0
-485 484 0
485 -2 -484 0
-486 485 0
-486 105 0
486 -485 -105 0
-487 389 0
-487 110 0
487 -389 -110 0
488 -486 0
488 -487 0
-488 486 487 0
-489 393 0
-489 115 0
489 -393 -115 0
-490 396 0
-490 120 0
490 -396 -120 0
491 -489 0
491 -490 0
-491 489 490 0
492 -488 0
492 -491 0
-492 488 491 0
-493 401 0
-493 130 0
493 -401 -130 0
-494 404 0
-494 135 0
494 -404 -135 0
495 -493 0
495 -494 0
-495 493 494 0
-496 408 0
-496 140 0
496 -408 -140 0
-497 411 0
-497 145 0
497 -411 -145 0
498 -496 0
498 -497 0
-498 496 497 0
499 -495 0
499 -498 0
-499 495 498 0
500 -492 0
500 -499 0
-500 492 499 0
501 -483 0
501 -500 0
-501 483 500 0
502 -466 0
502 -501 0
-502 466 501 0
503 -417 -502 0
503 417 502 0
-503 -417 502 0
-503 417 -502 0
504 -294 0
504 -503 0
-504 294 503 0
504 0
